p cnf 630 2140
c p weight 252 -1 0
c p weight -252 1 0
c p weight 254 6.12323399573676603586882014729198302312846062338790031898128063403419218957424163818359375E-17 0
c p weight -254 1 0
c p weight 255 1 0
c p weight -255 1 0
c p weight 256 -1 0
c p weight -256 1 0
c p weight 258 -1 0
c p weight -258 1 0
c p weight 261 -1 0
c p weight -261 1 0
c p weight 264 -1 0
c p weight -264 1 0
c p weight 267 -1 0
c p weight -267 1 0
c p weight 270 -1 0
c p weight -270 1 0
c p weight 273 -1 0
c p weight -273 1 0
c p weight 276 -1 0
c p weight -276 1 0
c p weight 279 -1 0
c p weight -279 1 0
c p weight 282 -1 0
c p weight -282 1 0
c p weight 285 -1 0
c p weight -285 1 0
c p weight 288 -1 0
c p weight -288 1 0
c p weight 291 -1 0
c p weight -291 1 0
c p weight 294 -1 0
c p weight -294 1 0
c p weight 297 -1 0
c p weight -297 1 0
c p weight 300 -1 0
c p weight -300 1 0
c p weight 303 -1 0
c p weight -303 1 0
c p weight 306 -1 0
c p weight -306 1 0
c p weight 309 -1 0
c p weight -309 1 0
c p weight 312 -1 0
c p weight -312 1 0
c p weight 315 -1 0
c p weight -315 1 0
c p weight 318 -1 0
c p weight -318 1 0
c p weight 321 -1 0
c p weight -321 1 0
c p weight 324 -1 0
c p weight -324 1 0
c p weight 327 -1 0
c p weight -327 1 0
c p weight 330 -1 0
c p weight -330 1 0
c p weight 333 -1 0
c p weight -333 1 0
c p weight 336 -1 0
c p weight -336 1 0
c p weight 339 -1 0
c p weight -339 1 0
c p weight 342 -1 0
c p weight -342 1 0
c p weight 345 -1 0
c p weight -345 1 0
c p weight 348 -1 0
c p weight -348 1 0
c p weight 351 -1 0
c p weight -351 1 0
c p weight 354 -1 0
c p weight -354 1 0
c p weight 357 -1 0
c p weight -357 1 0
c p weight 360 -1 0
c p weight -360 1 0
c p weight 363 -1 0
c p weight -363 1 0
c p weight 366 -1 0
c p weight -366 1 0
c p weight 369 -1 0
c p weight -369 1 0
c p weight 372 -1 0
c p weight -372 1 0
c p weight 375 -1 0
c p weight -375 1 0
c p weight 378 -1 0
c p weight -378 1 0
c p weight 381 -1 0
c p weight -381 1 0
c p weight 384 -1 0
c p weight -384 1 0
c p weight 387 -1 0
c p weight -387 1 0
c p weight 390 -1 0
c p weight -390 1 0
c p weight 393 -1 0
c p weight -393 1 0
c p weight 396 -1 0
c p weight -396 1 0
c p weight 399 -1 0
c p weight -399 1 0
c p weight 402 -1 0
c p weight -402 1 0
c p weight 405 -1 0
c p weight -405 1 0
c p weight 408 -1 0
c p weight -408 1 0
c p weight 411 -1 0
c p weight -411 1 0
c p weight 414 -1 0
c p weight -414 1 0
c p weight 417 -1 0
c p weight -417 1 0
c p weight 420 -1 0
c p weight -420 1 0
c p weight 423 -1 0
c p weight -423 1 0
c p weight 426 -1 0
c p weight -426 1 0
c p weight 429 -1 0
c p weight -429 1 0
c p weight 432 -1 0
c p weight -432 1 0
c p weight 435 -1 0
c p weight -435 1 0
c p weight 438 -1 0
c p weight -438 1 0
c p weight 441 -1 0
c p weight -441 1 0
c p weight 444 -1 0
c p weight -444 1 0
c p weight 447 -1 0
c p weight -447 1 0
c p weight 450 -1 0
c p weight -450 1 0
c p weight 453 -1 0
c p weight -453 1 0
c p weight 456 -1 0
c p weight -456 1 0
c p weight 459 -1 0
c p weight -459 1 0
c p weight 462 -1 0
c p weight -462 1 0
c p weight 465 -1 0
c p weight -465 1 0
c p weight 468 -1 0
c p weight -468 1 0
c p weight 471 -1 0
c p weight -471 1 0
c p weight 474 -1 0
c p weight -474 1 0
c p weight 477 -1 0
c p weight -477 1 0
c p weight 480 -1 0
c p weight -480 1 0
c p weight 483 -1 0
c p weight -483 1 0
c p weight 486 -1 0
c p weight -486 1 0
c p weight 489 -1 0
c p weight -489 1 0
c p weight 492 -1 0
c p weight -492 1 0
c p weight 495 -1 0
c p weight -495 1 0
c p weight 498 -1 0
c p weight -498 1 0
c p weight 501 -1 0
c p weight -501 1 0
c p weight 504 -1 0
c p weight -504 1 0
c p weight 507 -1 0
c p weight -507 1 0
c p weight 510 -1 0
c p weight -510 1 0
c p weight 513 -1 0
c p weight -513 1 0
c p weight 516 -1 0
c p weight -516 1 0
c p weight 519 -1 0
c p weight -519 1 0
c p weight 522 -1 0
c p weight -522 1 0
c p weight 525 -1 0
c p weight -525 1 0
c p weight 528 -1 0
c p weight -528 1 0
c p weight 531 -1 0
c p weight -531 1 0
c p weight 534 -1 0
c p weight -534 1 0
c p weight 537 -1 0
c p weight -537 1 0
c p weight 540 -1 0
c p weight -540 1 0
c p weight 543 -1 0
c p weight -543 1 0
c p weight 546 -1 0
c p weight -546 1 0
c p weight 549 -1 0
c p weight -549 1 0
c p weight 552 -1 0
c p weight -552 1 0
c p weight 555 -1 0
c p weight -555 1 0
c p weight 558 -1 0
c p weight -558 1 0
c p weight 561 -1 0
c p weight -561 1 0
c p weight 564 -1 0
c p weight -564 1 0
c p weight 567 -1 0
c p weight -567 1 0
c p weight 570 -1 0
c p weight -570 1 0
c p weight 573 -1 0
c p weight -573 1 0
c p weight 576 -1 0
c p weight -576 1 0
c p weight 579 -1 0
c p weight -579 1 0
c p weight 582 -1 0
c p weight -582 1 0
c p weight 585 -1 0
c p weight -585 1 0
c p weight 588 -1 0
c p weight -588 1 0
c p weight 591 -1 0
c p weight -591 1 0
c p weight 594 -1 0
c p weight -594 1 0
c p weight 597 -1 0
c p weight -597 1 0
c p weight 600 -1 0
c p weight -600 1 0
c p weight 603 -1 0
c p weight -603 1 0
c p weight 606 -1 0
c p weight -606 1 0
c p weight 609 -1 0
c p weight -609 1 0
c p weight 612 -1 0
c p weight -612 1 0
c p weight 615 -1 0
c p weight -615 1 0
c p weight 618 -1 0
c p weight -618 1 0
c p weight 621 -1 0
c p weight -621 1 0
c p weight 624 -1 0
c p weight -624 1 0
c p weight 627 -1 0
c p weight -627 1 0
c p weight 630 -1 0
c p weight -630 1 0
-249 0
-247 0
-245 0
-243 0
-241 0
-239 0
-237 0
-235 0
-233 0
-231 0
-229 0
-227 0
-225 0
-223 0
-221 0
-219 0
-217 0
-215 0
-213 0
-211 0
-209 0
-207 0
-205 0
-203 0
-201 0
-199 0
-197 0
-195 0
-193 0
-191 0
-189 0
-187 0
-185 0
-183 0
-181 0
-179 0
-177 0
-175 0
-173 0
-171 0
-169 0
-167 0
-165 0
-163 0
-161 0
-159 0
-157 0
-155 0
-153 0
-151 0
-149 0
-147 0
-145 0
-143 0
-141 0
-139 0
-137 0
-135 0
-133 0
-131 0
-129 0
-127 0
-125 0
-123 0
-121 0
-119 0
-117 0
-115 0
-113 0
-111 0
-109 0
-107 0
-105 0
-103 0
-101 0
-99 0
-97 0
-95 0
-93 0
-91 0
-89 0
-87 0
-85 0
-83 0
-81 0
-79 0
-77 0
-75 0
-73 0
-71 0
-69 0
-67 0
-65 0
-63 0
-61 0
-59 0
-57 0
-55 0
-53 0
-51 0
-49 0
-47 0
-45 0
-43 0
-41 0
-39 0
-37 0
-35 0
-33 0
-31 0
-29 0
-27 0
-25 0
-23 0
-21 0
-19 0
-17 0
-15 0
-13 0
-11 0
-9 0
-7 0
-5 0
-3 0
-1 0
251 249 -250 0
251 -249 250 0
-251 249 250 0
-251 -249 -250 0
-252 249 0
-252 250 0
252 -249 -250 0
253 -249 251 0
-253 249 251 0
-254 251 0
253 -254 -249 0
-253 -254 249 0
253 254 249 -251 0
-253 254 -249 -251 0
-255 251 0
253 -255 249 0
-253 -255 -249 0
253 255 -249 -251 0
-253 255 249 -251 0
-256 253 0
-256 251 0
-256 -249 0
256 -253 249 -251 0
257 253 -251 0
257 -253 251 0
-257 253 251 0
-257 -253 -251 0
-258 253 0
-258 251 0
258 -253 -251 0
259 253 -247 0
259 -253 247 0
-259 253 247 0
-259 -253 -247 0
260 257 -248 0
260 -257 248 0
-260 257 248 0
-260 -257 -248 0
-261 253 0
-261 248 0
-261 247 -257 0
-261 -247 257 0
261 -253 247 257 -248 0
261 -253 -247 -257 -248 0
262 259 -245 0
262 -259 245 0
-262 259 245 0
-262 -259 -245 0
263 248 -246 0
263 -248 246 0
-263 248 246 0
-263 -248 -246 0
-264 259 0
-264 246 0
-264 245 -248 0
-264 -245 248 0
264 -259 245 248 -246 0
264 -259 -245 -248 -246 0
265 262 -243 0
265 -262 243 0
-265 262 243 0
-265 -262 -243 0
266 246 -244 0
266 -246 244 0
-266 246 244 0
-266 -246 -244 0
-267 262 0
-267 244 0
-267 243 -246 0
-267 -243 246 0
267 -262 243 246 -244 0
267 -262 -243 -246 -244 0
268 265 -241 0
268 -265 241 0
-268 265 241 0
-268 -265 -241 0
269 244 -242 0
269 -244 242 0
-269 244 242 0
-269 -244 -242 0
-270 265 0
-270 242 0
-270 241 -244 0
-270 -241 244 0
270 -265 241 244 -242 0
270 -265 -241 -244 -242 0
271 268 -239 0
271 -268 239 0
-271 268 239 0
-271 -268 -239 0
272 242 -240 0
272 -242 240 0
-272 242 240 0
-272 -242 -240 0
-273 268 0
-273 240 0
-273 239 -242 0
-273 -239 242 0
273 -268 239 242 -240 0
273 -268 -239 -242 -240 0
274 271 -237 0
274 -271 237 0
-274 271 237 0
-274 -271 -237 0
275 240 -238 0
275 -240 238 0
-275 240 238 0
-275 -240 -238 0
-276 271 0
-276 238 0
-276 237 -240 0
-276 -237 240 0
276 -271 237 240 -238 0
276 -271 -237 -240 -238 0
277 274 -235 0
277 -274 235 0
-277 274 235 0
-277 -274 -235 0
278 238 -236 0
278 -238 236 0
-278 238 236 0
-278 -238 -236 0
-279 274 0
-279 236 0
-279 235 -238 0
-279 -235 238 0
279 -274 235 238 -236 0
279 -274 -235 -238 -236 0
280 277 -233 0
280 -277 233 0
-280 277 233 0
-280 -277 -233 0
281 236 -234 0
281 -236 234 0
-281 236 234 0
-281 -236 -234 0
-282 277 0
-282 234 0
-282 233 -236 0
-282 -233 236 0
282 -277 233 236 -234 0
282 -277 -233 -236 -234 0
283 280 -231 0
283 -280 231 0
-283 280 231 0
-283 -280 -231 0
284 234 -232 0
284 -234 232 0
-284 234 232 0
-284 -234 -232 0
-285 280 0
-285 232 0
-285 231 -234 0
-285 -231 234 0
285 -280 231 234 -232 0
285 -280 -231 -234 -232 0
286 283 -229 0
286 -283 229 0
-286 283 229 0
-286 -283 -229 0
287 232 -230 0
287 -232 230 0
-287 232 230 0
-287 -232 -230 0
-288 283 0
-288 230 0
-288 229 -232 0
-288 -229 232 0
288 -283 229 232 -230 0
288 -283 -229 -232 -230 0
289 286 -227 0
289 -286 227 0
-289 286 227 0
-289 -286 -227 0
290 230 -228 0
290 -230 228 0
-290 230 228 0
-290 -230 -228 0
-291 286 0
-291 228 0
-291 227 -230 0
-291 -227 230 0
291 -286 227 230 -228 0
291 -286 -227 -230 -228 0
292 289 -225 0
292 -289 225 0
-292 289 225 0
-292 -289 -225 0
293 228 -226 0
293 -228 226 0
-293 228 226 0
-293 -228 -226 0
-294 289 0
-294 226 0
-294 225 -228 0
-294 -225 228 0
294 -289 225 228 -226 0
294 -289 -225 -228 -226 0
295 292 -223 0
295 -292 223 0
-295 292 223 0
-295 -292 -223 0
296 226 -224 0
296 -226 224 0
-296 226 224 0
-296 -226 -224 0
-297 292 0
-297 224 0
-297 223 -226 0
-297 -223 226 0
297 -292 223 226 -224 0
297 -292 -223 -226 -224 0
298 295 -221 0
298 -295 221 0
-298 295 221 0
-298 -295 -221 0
299 224 -222 0
299 -224 222 0
-299 224 222 0
-299 -224 -222 0
-300 295 0
-300 222 0
-300 221 -224 0
-300 -221 224 0
300 -295 221 224 -222 0
300 -295 -221 -224 -222 0
301 298 -219 0
301 -298 219 0
-301 298 219 0
-301 -298 -219 0
302 222 -220 0
302 -222 220 0
-302 222 220 0
-302 -222 -220 0
-303 298 0
-303 220 0
-303 219 -222 0
-303 -219 222 0
303 -298 219 222 -220 0
303 -298 -219 -222 -220 0
304 301 -217 0
304 -301 217 0
-304 301 217 0
-304 -301 -217 0
305 220 -218 0
305 -220 218 0
-305 220 218 0
-305 -220 -218 0
-306 301 0
-306 218 0
-306 217 -220 0
-306 -217 220 0
306 -301 217 220 -218 0
306 -301 -217 -220 -218 0
307 304 -215 0
307 -304 215 0
-307 304 215 0
-307 -304 -215 0
308 218 -216 0
308 -218 216 0
-308 218 216 0
-308 -218 -216 0
-309 304 0
-309 216 0
-309 215 -218 0
-309 -215 218 0
309 -304 215 218 -216 0
309 -304 -215 -218 -216 0
310 307 -213 0
310 -307 213 0
-310 307 213 0
-310 -307 -213 0
311 216 -214 0
311 -216 214 0
-311 216 214 0
-311 -216 -214 0
-312 307 0
-312 214 0
-312 213 -216 0
-312 -213 216 0
312 -307 213 216 -214 0
312 -307 -213 -216 -214 0
313 310 -211 0
313 -310 211 0
-313 310 211 0
-313 -310 -211 0
314 214 -212 0
314 -214 212 0
-314 214 212 0
-314 -214 -212 0
-315 310 0
-315 212 0
-315 211 -214 0
-315 -211 214 0
315 -310 211 214 -212 0
315 -310 -211 -214 -212 0
316 313 -209 0
316 -313 209 0
-316 313 209 0
-316 -313 -209 0
317 212 -210 0
317 -212 210 0
-317 212 210 0
-317 -212 -210 0
-318 313 0
-318 210 0
-318 209 -212 0
-318 -209 212 0
318 -313 209 212 -210 0
318 -313 -209 -212 -210 0
319 316 -207 0
319 -316 207 0
-319 316 207 0
-319 -316 -207 0
320 210 -208 0
320 -210 208 0
-320 210 208 0
-320 -210 -208 0
-321 316 0
-321 208 0
-321 207 -210 0
-321 -207 210 0
321 -316 207 210 -208 0
321 -316 -207 -210 -208 0
322 319 -205 0
322 -319 205 0
-322 319 205 0
-322 -319 -205 0
323 208 -206 0
323 -208 206 0
-323 208 206 0
-323 -208 -206 0
-324 319 0
-324 206 0
-324 205 -208 0
-324 -205 208 0
324 -319 205 208 -206 0
324 -319 -205 -208 -206 0
325 322 -203 0
325 -322 203 0
-325 322 203 0
-325 -322 -203 0
326 206 -204 0
326 -206 204 0
-326 206 204 0
-326 -206 -204 0
-327 322 0
-327 204 0
-327 203 -206 0
-327 -203 206 0
327 -322 203 206 -204 0
327 -322 -203 -206 -204 0
328 325 -201 0
328 -325 201 0
-328 325 201 0
-328 -325 -201 0
329 204 -202 0
329 -204 202 0
-329 204 202 0
-329 -204 -202 0
-330 325 0
-330 202 0
-330 201 -204 0
-330 -201 204 0
330 -325 201 204 -202 0
330 -325 -201 -204 -202 0
331 328 -199 0
331 -328 199 0
-331 328 199 0
-331 -328 -199 0
332 202 -200 0
332 -202 200 0
-332 202 200 0
-332 -202 -200 0
-333 328 0
-333 200 0
-333 199 -202 0
-333 -199 202 0
333 -328 199 202 -200 0
333 -328 -199 -202 -200 0
334 331 -197 0
334 -331 197 0
-334 331 197 0
-334 -331 -197 0
335 200 -198 0
335 -200 198 0
-335 200 198 0
-335 -200 -198 0
-336 331 0
-336 198 0
-336 197 -200 0
-336 -197 200 0
336 -331 197 200 -198 0
336 -331 -197 -200 -198 0
337 334 -195 0
337 -334 195 0
-337 334 195 0
-337 -334 -195 0
338 198 -196 0
338 -198 196 0
-338 198 196 0
-338 -198 -196 0
-339 334 0
-339 196 0
-339 195 -198 0
-339 -195 198 0
339 -334 195 198 -196 0
339 -334 -195 -198 -196 0
340 337 -193 0
340 -337 193 0
-340 337 193 0
-340 -337 -193 0
341 196 -194 0
341 -196 194 0
-341 196 194 0
-341 -196 -194 0
-342 337 0
-342 194 0
-342 193 -196 0
-342 -193 196 0
342 -337 193 196 -194 0
342 -337 -193 -196 -194 0
343 340 -191 0
343 -340 191 0
-343 340 191 0
-343 -340 -191 0
344 194 -192 0
344 -194 192 0
-344 194 192 0
-344 -194 -192 0
-345 340 0
-345 192 0
-345 191 -194 0
-345 -191 194 0
345 -340 191 194 -192 0
345 -340 -191 -194 -192 0
346 343 -189 0
346 -343 189 0
-346 343 189 0
-346 -343 -189 0
347 192 -190 0
347 -192 190 0
-347 192 190 0
-347 -192 -190 0
-348 343 0
-348 190 0
-348 189 -192 0
-348 -189 192 0
348 -343 189 192 -190 0
348 -343 -189 -192 -190 0
349 346 -187 0
349 -346 187 0
-349 346 187 0
-349 -346 -187 0
350 190 -188 0
350 -190 188 0
-350 190 188 0
-350 -190 -188 0
-351 346 0
-351 188 0
-351 187 -190 0
-351 -187 190 0
351 -346 187 190 -188 0
351 -346 -187 -190 -188 0
352 349 -185 0
352 -349 185 0
-352 349 185 0
-352 -349 -185 0
353 188 -186 0
353 -188 186 0
-353 188 186 0
-353 -188 -186 0
-354 349 0
-354 186 0
-354 185 -188 0
-354 -185 188 0
354 -349 185 188 -186 0
354 -349 -185 -188 -186 0
355 352 -183 0
355 -352 183 0
-355 352 183 0
-355 -352 -183 0
356 186 -184 0
356 -186 184 0
-356 186 184 0
-356 -186 -184 0
-357 352 0
-357 184 0
-357 183 -186 0
-357 -183 186 0
357 -352 183 186 -184 0
357 -352 -183 -186 -184 0
358 355 -181 0
358 -355 181 0
-358 355 181 0
-358 -355 -181 0
359 184 -182 0
359 -184 182 0
-359 184 182 0
-359 -184 -182 0
-360 355 0
-360 182 0
-360 181 -184 0
-360 -181 184 0
360 -355 181 184 -182 0
360 -355 -181 -184 -182 0
361 358 -179 0
361 -358 179 0
-361 358 179 0
-361 -358 -179 0
362 182 -180 0
362 -182 180 0
-362 182 180 0
-362 -182 -180 0
-363 358 0
-363 180 0
-363 179 -182 0
-363 -179 182 0
363 -358 179 182 -180 0
363 -358 -179 -182 -180 0
364 361 -177 0
364 -361 177 0
-364 361 177 0
-364 -361 -177 0
365 180 -178 0
365 -180 178 0
-365 180 178 0
-365 -180 -178 0
-366 361 0
-366 178 0
-366 177 -180 0
-366 -177 180 0
366 -361 177 180 -178 0
366 -361 -177 -180 -178 0
367 364 -175 0
367 -364 175 0
-367 364 175 0
-367 -364 -175 0
368 178 -176 0
368 -178 176 0
-368 178 176 0
-368 -178 -176 0
-369 364 0
-369 176 0
-369 175 -178 0
-369 -175 178 0
369 -364 175 178 -176 0
369 -364 -175 -178 -176 0
370 367 -173 0
370 -367 173 0
-370 367 173 0
-370 -367 -173 0
371 176 -174 0
371 -176 174 0
-371 176 174 0
-371 -176 -174 0
-372 367 0
-372 174 0
-372 173 -176 0
-372 -173 176 0
372 -367 173 176 -174 0
372 -367 -173 -176 -174 0
373 370 -171 0
373 -370 171 0
-373 370 171 0
-373 -370 -171 0
374 174 -172 0
374 -174 172 0
-374 174 172 0
-374 -174 -172 0
-375 370 0
-375 172 0
-375 171 -174 0
-375 -171 174 0
375 -370 171 174 -172 0
375 -370 -171 -174 -172 0
376 373 -169 0
376 -373 169 0
-376 373 169 0
-376 -373 -169 0
377 172 -170 0
377 -172 170 0
-377 172 170 0
-377 -172 -170 0
-378 373 0
-378 170 0
-378 169 -172 0
-378 -169 172 0
378 -373 169 172 -170 0
378 -373 -169 -172 -170 0
379 376 -167 0
379 -376 167 0
-379 376 167 0
-379 -376 -167 0
380 170 -168 0
380 -170 168 0
-380 170 168 0
-380 -170 -168 0
-381 376 0
-381 168 0
-381 167 -170 0
-381 -167 170 0
381 -376 167 170 -168 0
381 -376 -167 -170 -168 0
382 379 -165 0
382 -379 165 0
-382 379 165 0
-382 -379 -165 0
383 168 -166 0
383 -168 166 0
-383 168 166 0
-383 -168 -166 0
-384 379 0
-384 166 0
-384 165 -168 0
-384 -165 168 0
384 -379 165 168 -166 0
384 -379 -165 -168 -166 0
385 382 -163 0
385 -382 163 0
-385 382 163 0
-385 -382 -163 0
386 166 -164 0
386 -166 164 0
-386 166 164 0
-386 -166 -164 0
-387 382 0
-387 164 0
-387 163 -166 0
-387 -163 166 0
387 -382 163 166 -164 0
387 -382 -163 -166 -164 0
388 385 -161 0
388 -385 161 0
-388 385 161 0
-388 -385 -161 0
389 164 -162 0
389 -164 162 0
-389 164 162 0
-389 -164 -162 0
-390 385 0
-390 162 0
-390 161 -164 0
-390 -161 164 0
390 -385 161 164 -162 0
390 -385 -161 -164 -162 0
391 388 -159 0
391 -388 159 0
-391 388 159 0
-391 -388 -159 0
392 162 -160 0
392 -162 160 0
-392 162 160 0
-392 -162 -160 0
-393 388 0
-393 160 0
-393 159 -162 0
-393 -159 162 0
393 -388 159 162 -160 0
393 -388 -159 -162 -160 0
394 391 -157 0
394 -391 157 0
-394 391 157 0
-394 -391 -157 0
395 160 -158 0
395 -160 158 0
-395 160 158 0
-395 -160 -158 0
-396 391 0
-396 158 0
-396 157 -160 0
-396 -157 160 0
396 -391 157 160 -158 0
396 -391 -157 -160 -158 0
397 394 -155 0
397 -394 155 0
-397 394 155 0
-397 -394 -155 0
398 158 -156 0
398 -158 156 0
-398 158 156 0
-398 -158 -156 0
-399 394 0
-399 156 0
-399 155 -158 0
-399 -155 158 0
399 -394 155 158 -156 0
399 -394 -155 -158 -156 0
400 397 -153 0
400 -397 153 0
-400 397 153 0
-400 -397 -153 0
401 156 -154 0
401 -156 154 0
-401 156 154 0
-401 -156 -154 0
-402 397 0
-402 154 0
-402 153 -156 0
-402 -153 156 0
402 -397 153 156 -154 0
402 -397 -153 -156 -154 0
403 400 -151 0
403 -400 151 0
-403 400 151 0
-403 -400 -151 0
404 154 -152 0
404 -154 152 0
-404 154 152 0
-404 -154 -152 0
-405 400 0
-405 152 0
-405 151 -154 0
-405 -151 154 0
405 -400 151 154 -152 0
405 -400 -151 -154 -152 0
406 403 -149 0
406 -403 149 0
-406 403 149 0
-406 -403 -149 0
407 152 -150 0
407 -152 150 0
-407 152 150 0
-407 -152 -150 0
-408 403 0
-408 150 0
-408 149 -152 0
-408 -149 152 0
408 -403 149 152 -150 0
408 -403 -149 -152 -150 0
409 406 -147 0
409 -406 147 0
-409 406 147 0
-409 -406 -147 0
410 150 -148 0
410 -150 148 0
-410 150 148 0
-410 -150 -148 0
-411 406 0
-411 148 0
-411 147 -150 0
-411 -147 150 0
411 -406 147 150 -148 0
411 -406 -147 -150 -148 0
412 409 -145 0
412 -409 145 0
-412 409 145 0
-412 -409 -145 0
413 148 -146 0
413 -148 146 0
-413 148 146 0
-413 -148 -146 0
-414 409 0
-414 146 0
-414 145 -148 0
-414 -145 148 0
414 -409 145 148 -146 0
414 -409 -145 -148 -146 0
415 412 -143 0
415 -412 143 0
-415 412 143 0
-415 -412 -143 0
416 146 -144 0
416 -146 144 0
-416 146 144 0
-416 -146 -144 0
-417 412 0
-417 144 0
-417 143 -146 0
-417 -143 146 0
417 -412 143 146 -144 0
417 -412 -143 -146 -144 0
418 415 -141 0
418 -415 141 0
-418 415 141 0
-418 -415 -141 0
419 144 -142 0
419 -144 142 0
-419 144 142 0
-419 -144 -142 0
-420 415 0
-420 142 0
-420 141 -144 0
-420 -141 144 0
420 -415 141 144 -142 0
420 -415 -141 -144 -142 0
421 418 -139 0
421 -418 139 0
-421 418 139 0
-421 -418 -139 0
422 142 -140 0
422 -142 140 0
-422 142 140 0
-422 -142 -140 0
-423 418 0
-423 140 0
-423 139 -142 0
-423 -139 142 0
423 -418 139 142 -140 0
423 -418 -139 -142 -140 0
424 421 -137 0
424 -421 137 0
-424 421 137 0
-424 -421 -137 0
425 140 -138 0
425 -140 138 0
-425 140 138 0
-425 -140 -138 0
-426 421 0
-426 138 0
-426 137 -140 0
-426 -137 140 0
426 -421 137 140 -138 0
426 -421 -137 -140 -138 0
427 424 -135 0
427 -424 135 0
-427 424 135 0
-427 -424 -135 0
428 138 -136 0
428 -138 136 0
-428 138 136 0
-428 -138 -136 0
-429 424 0
-429 136 0
-429 135 -138 0
-429 -135 138 0
429 -424 135 138 -136 0
429 -424 -135 -138 -136 0
430 427 -133 0
430 -427 133 0
-430 427 133 0
-430 -427 -133 0
431 136 -134 0
431 -136 134 0
-431 136 134 0
-431 -136 -134 0
-432 427 0
-432 134 0
-432 133 -136 0
-432 -133 136 0
432 -427 133 136 -134 0
432 -427 -133 -136 -134 0
433 430 -131 0
433 -430 131 0
-433 430 131 0
-433 -430 -131 0
434 134 -132 0
434 -134 132 0
-434 134 132 0
-434 -134 -132 0
-435 430 0
-435 132 0
-435 131 -134 0
-435 -131 134 0
435 -430 131 134 -132 0
435 -430 -131 -134 -132 0
436 433 -129 0
436 -433 129 0
-436 433 129 0
-436 -433 -129 0
437 132 -130 0
437 -132 130 0
-437 132 130 0
-437 -132 -130 0
-438 433 0
-438 130 0
-438 129 -132 0
-438 -129 132 0
438 -433 129 132 -130 0
438 -433 -129 -132 -130 0
439 436 -127 0
439 -436 127 0
-439 436 127 0
-439 -436 -127 0
440 130 -128 0
440 -130 128 0
-440 130 128 0
-440 -130 -128 0
-441 436 0
-441 128 0
-441 127 -130 0
-441 -127 130 0
441 -436 127 130 -128 0
441 -436 -127 -130 -128 0
442 439 -125 0
442 -439 125 0
-442 439 125 0
-442 -439 -125 0
443 128 -126 0
443 -128 126 0
-443 128 126 0
-443 -128 -126 0
-444 439 0
-444 126 0
-444 125 -128 0
-444 -125 128 0
444 -439 125 128 -126 0
444 -439 -125 -128 -126 0
445 442 -123 0
445 -442 123 0
-445 442 123 0
-445 -442 -123 0
446 126 -124 0
446 -126 124 0
-446 126 124 0
-446 -126 -124 0
-447 442 0
-447 124 0
-447 123 -126 0
-447 -123 126 0
447 -442 123 126 -124 0
447 -442 -123 -126 -124 0
448 445 -121 0
448 -445 121 0
-448 445 121 0
-448 -445 -121 0
449 124 -122 0
449 -124 122 0
-449 124 122 0
-449 -124 -122 0
-450 445 0
-450 122 0
-450 121 -124 0
-450 -121 124 0
450 -445 121 124 -122 0
450 -445 -121 -124 -122 0
451 448 -119 0
451 -448 119 0
-451 448 119 0
-451 -448 -119 0
452 122 -120 0
452 -122 120 0
-452 122 120 0
-452 -122 -120 0
-453 448 0
-453 120 0
-453 119 -122 0
-453 -119 122 0
453 -448 119 122 -120 0
453 -448 -119 -122 -120 0
454 451 -117 0
454 -451 117 0
-454 451 117 0
-454 -451 -117 0
455 120 -118 0
455 -120 118 0
-455 120 118 0
-455 -120 -118 0
-456 451 0
-456 118 0
-456 117 -120 0
-456 -117 120 0
456 -451 117 120 -118 0
456 -451 -117 -120 -118 0
457 454 -115 0
457 -454 115 0
-457 454 115 0
-457 -454 -115 0
458 118 -116 0
458 -118 116 0
-458 118 116 0
-458 -118 -116 0
-459 454 0
-459 116 0
-459 115 -118 0
-459 -115 118 0
459 -454 115 118 -116 0
459 -454 -115 -118 -116 0
460 457 -113 0
460 -457 113 0
-460 457 113 0
-460 -457 -113 0
461 116 -114 0
461 -116 114 0
-461 116 114 0
-461 -116 -114 0
-462 457 0
-462 114 0
-462 113 -116 0
-462 -113 116 0
462 -457 113 116 -114 0
462 -457 -113 -116 -114 0
463 460 -111 0
463 -460 111 0
-463 460 111 0
-463 -460 -111 0
464 114 -112 0
464 -114 112 0
-464 114 112 0
-464 -114 -112 0
-465 460 0
-465 112 0
-465 111 -114 0
-465 -111 114 0
465 -460 111 114 -112 0
465 -460 -111 -114 -112 0
466 463 -109 0
466 -463 109 0
-466 463 109 0
-466 -463 -109 0
467 112 -110 0
467 -112 110 0
-467 112 110 0
-467 -112 -110 0
-468 463 0
-468 110 0
-468 109 -112 0
-468 -109 112 0
468 -463 109 112 -110 0
468 -463 -109 -112 -110 0
469 466 -107 0
469 -466 107 0
-469 466 107 0
-469 -466 -107 0
470 110 -108 0
470 -110 108 0
-470 110 108 0
-470 -110 -108 0
-471 466 0
-471 108 0
-471 107 -110 0
-471 -107 110 0
471 -466 107 110 -108 0
471 -466 -107 -110 -108 0
472 469 -105 0
472 -469 105 0
-472 469 105 0
-472 -469 -105 0
473 108 -106 0
473 -108 106 0
-473 108 106 0
-473 -108 -106 0
-474 469 0
-474 106 0
-474 105 -108 0
-474 -105 108 0
474 -469 105 108 -106 0
474 -469 -105 -108 -106 0
475 472 -103 0
475 -472 103 0
-475 472 103 0
-475 -472 -103 0
476 106 -104 0
476 -106 104 0
-476 106 104 0
-476 -106 -104 0
-477 472 0
-477 104 0
-477 103 -106 0
-477 -103 106 0
477 -472 103 106 -104 0
477 -472 -103 -106 -104 0
478 475 -101 0
478 -475 101 0
-478 475 101 0
-478 -475 -101 0
479 104 -102 0
479 -104 102 0
-479 104 102 0
-479 -104 -102 0
-480 475 0
-480 102 0
-480 101 -104 0
-480 -101 104 0
480 -475 101 104 -102 0
480 -475 -101 -104 -102 0
481 478 -99 0
481 -478 99 0
-481 478 99 0
-481 -478 -99 0
482 102 -100 0
482 -102 100 0
-482 102 100 0
-482 -102 -100 0
-483 478 0
-483 100 0
-483 99 -102 0
-483 -99 102 0
483 -478 99 102 -100 0
483 -478 -99 -102 -100 0
484 481 -97 0
484 -481 97 0
-484 481 97 0
-484 -481 -97 0
485 100 -98 0
485 -100 98 0
-485 100 98 0
-485 -100 -98 0
-486 481 0
-486 98 0
-486 97 -100 0
-486 -97 100 0
486 -481 97 100 -98 0
486 -481 -97 -100 -98 0
487 484 -95 0
487 -484 95 0
-487 484 95 0
-487 -484 -95 0
488 98 -96 0
488 -98 96 0
-488 98 96 0
-488 -98 -96 0
-489 484 0
-489 96 0
-489 95 -98 0
-489 -95 98 0
489 -484 95 98 -96 0
489 -484 -95 -98 -96 0
490 487 -93 0
490 -487 93 0
-490 487 93 0
-490 -487 -93 0
491 96 -94 0
491 -96 94 0
-491 96 94 0
-491 -96 -94 0
-492 487 0
-492 94 0
-492 93 -96 0
-492 -93 96 0
492 -487 93 96 -94 0
492 -487 -93 -96 -94 0
493 490 -91 0
493 -490 91 0
-493 490 91 0
-493 -490 -91 0
494 94 -92 0
494 -94 92 0
-494 94 92 0
-494 -94 -92 0
-495 490 0
-495 92 0
-495 91 -94 0
-495 -91 94 0
495 -490 91 94 -92 0
495 -490 -91 -94 -92 0
496 493 -89 0
496 -493 89 0
-496 493 89 0
-496 -493 -89 0
497 92 -90 0
497 -92 90 0
-497 92 90 0
-497 -92 -90 0
-498 493 0
-498 90 0
-498 89 -92 0
-498 -89 92 0
498 -493 89 92 -90 0
498 -493 -89 -92 -90 0
499 496 -87 0
499 -496 87 0
-499 496 87 0
-499 -496 -87 0
500 90 -88 0
500 -90 88 0
-500 90 88 0
-500 -90 -88 0
-501 496 0
-501 88 0
-501 87 -90 0
-501 -87 90 0
501 -496 87 90 -88 0
501 -496 -87 -90 -88 0
502 499 -85 0
502 -499 85 0
-502 499 85 0
-502 -499 -85 0
503 88 -86 0
503 -88 86 0
-503 88 86 0
-503 -88 -86 0
-504 499 0
-504 86 0
-504 85 -88 0
-504 -85 88 0
504 -499 85 88 -86 0
504 -499 -85 -88 -86 0
505 502 -83 0
505 -502 83 0
-505 502 83 0
-505 -502 -83 0
506 86 -84 0
506 -86 84 0
-506 86 84 0
-506 -86 -84 0
-507 502 0
-507 84 0
-507 83 -86 0
-507 -83 86 0
507 -502 83 86 -84 0
507 -502 -83 -86 -84 0
508 505 -81 0
508 -505 81 0
-508 505 81 0
-508 -505 -81 0
509 84 -82 0
509 -84 82 0
-509 84 82 0
-509 -84 -82 0
-510 505 0
-510 82 0
-510 81 -84 0
-510 -81 84 0
510 -505 81 84 -82 0
510 -505 -81 -84 -82 0
511 508 -79 0
511 -508 79 0
-511 508 79 0
-511 -508 -79 0
512 82 -80 0
512 -82 80 0
-512 82 80 0
-512 -82 -80 0
-513 508 0
-513 80 0
-513 79 -82 0
-513 -79 82 0
513 -508 79 82 -80 0
513 -508 -79 -82 -80 0
514 511 -77 0
514 -511 77 0
-514 511 77 0
-514 -511 -77 0
515 80 -78 0
515 -80 78 0
-515 80 78 0
-515 -80 -78 0
-516 511 0
-516 78 0
-516 77 -80 0
-516 -77 80 0
516 -511 77 80 -78 0
516 -511 -77 -80 -78 0
517 514 -75 0
517 -514 75 0
-517 514 75 0
-517 -514 -75 0
518 78 -76 0
518 -78 76 0
-518 78 76 0
-518 -78 -76 0
-519 514 0
-519 76 0
-519 75 -78 0
-519 -75 78 0
519 -514 75 78 -76 0
519 -514 -75 -78 -76 0
520 517 -73 0
520 -517 73 0
-520 517 73 0
-520 -517 -73 0
521 76 -74 0
521 -76 74 0
-521 76 74 0
-521 -76 -74 0
-522 517 0
-522 74 0
-522 73 -76 0
-522 -73 76 0
522 -517 73 76 -74 0
522 -517 -73 -76 -74 0
523 520 -71 0
523 -520 71 0
-523 520 71 0
-523 -520 -71 0
524 74 -72 0
524 -74 72 0
-524 74 72 0
-524 -74 -72 0
-525 520 0
-525 72 0
-525 71 -74 0
-525 -71 74 0
525 -520 71 74 -72 0
525 -520 -71 -74 -72 0
526 523 -69 0
526 -523 69 0
-526 523 69 0
-526 -523 -69 0
527 72 -70 0
527 -72 70 0
-527 72 70 0
-527 -72 -70 0
-528 523 0
-528 70 0
-528 69 -72 0
-528 -69 72 0
528 -523 69 72 -70 0
528 -523 -69 -72 -70 0
529 526 -67 0
529 -526 67 0
-529 526 67 0
-529 -526 -67 0
530 70 -68 0
530 -70 68 0
-530 70 68 0
-530 -70 -68 0
-531 526 0
-531 68 0
-531 67 -70 0
-531 -67 70 0
531 -526 67 70 -68 0
531 -526 -67 -70 -68 0
532 529 -65 0
532 -529 65 0
-532 529 65 0
-532 -529 -65 0
533 68 -66 0
533 -68 66 0
-533 68 66 0
-533 -68 -66 0
-534 529 0
-534 66 0
-534 65 -68 0
-534 -65 68 0
534 -529 65 68 -66 0
534 -529 -65 -68 -66 0
535 532 -63 0
535 -532 63 0
-535 532 63 0
-535 -532 -63 0
536 66 -64 0
536 -66 64 0
-536 66 64 0
-536 -66 -64 0
-537 532 0
-537 64 0
-537 63 -66 0
-537 -63 66 0
537 -532 63 66 -64 0
537 -532 -63 -66 -64 0
538 535 -61 0
538 -535 61 0
-538 535 61 0
-538 -535 -61 0
539 64 -62 0
539 -64 62 0
-539 64 62 0
-539 -64 -62 0
-540 535 0
-540 62 0
-540 61 -64 0
-540 -61 64 0
540 -535 61 64 -62 0
540 -535 -61 -64 -62 0
541 538 -59 0
541 -538 59 0
-541 538 59 0
-541 -538 -59 0
542 62 -60 0
542 -62 60 0
-542 62 60 0
-542 -62 -60 0
-543 538 0
-543 60 0
-543 59 -62 0
-543 -59 62 0
543 -538 59 62 -60 0
543 -538 -59 -62 -60 0
544 541 -57 0
544 -541 57 0
-544 541 57 0
-544 -541 -57 0
545 60 -58 0
545 -60 58 0
-545 60 58 0
-545 -60 -58 0
-546 541 0
-546 58 0
-546 57 -60 0
-546 -57 60 0
546 -541 57 60 -58 0
546 -541 -57 -60 -58 0
547 544 -55 0
547 -544 55 0
-547 544 55 0
-547 -544 -55 0
548 58 -56 0
548 -58 56 0
-548 58 56 0
-548 -58 -56 0
-549 544 0
-549 56 0
-549 55 -58 0
-549 -55 58 0
549 -544 55 58 -56 0
549 -544 -55 -58 -56 0
550 547 -53 0
550 -547 53 0
-550 547 53 0
-550 -547 -53 0
551 56 -54 0
551 -56 54 0
-551 56 54 0
-551 -56 -54 0
-552 547 0
-552 54 0
-552 53 -56 0
-552 -53 56 0
552 -547 53 56 -54 0
552 -547 -53 -56 -54 0
553 550 -51 0
553 -550 51 0
-553 550 51 0
-553 -550 -51 0
554 54 -52 0
554 -54 52 0
-554 54 52 0
-554 -54 -52 0
-555 550 0
-555 52 0
-555 51 -54 0
-555 -51 54 0
555 -550 51 54 -52 0
555 -550 -51 -54 -52 0
556 553 -49 0
556 -553 49 0
-556 553 49 0
-556 -553 -49 0
557 52 -50 0
557 -52 50 0
-557 52 50 0
-557 -52 -50 0
-558 553 0
-558 50 0
-558 49 -52 0
-558 -49 52 0
558 -553 49 52 -50 0
558 -553 -49 -52 -50 0
559 556 -47 0
559 -556 47 0
-559 556 47 0
-559 -556 -47 0
560 50 -48 0
560 -50 48 0
-560 50 48 0
-560 -50 -48 0
-561 556 0
-561 48 0
-561 47 -50 0
-561 -47 50 0
561 -556 47 50 -48 0
561 -556 -47 -50 -48 0
562 559 -45 0
562 -559 45 0
-562 559 45 0
-562 -559 -45 0
563 48 -46 0
563 -48 46 0
-563 48 46 0
-563 -48 -46 0
-564 559 0
-564 46 0
-564 45 -48 0
-564 -45 48 0
564 -559 45 48 -46 0
564 -559 -45 -48 -46 0
565 562 -43 0
565 -562 43 0
-565 562 43 0
-565 -562 -43 0
566 46 -44 0
566 -46 44 0
-566 46 44 0
-566 -46 -44 0
-567 562 0
-567 44 0
-567 43 -46 0
-567 -43 46 0
567 -562 43 46 -44 0
567 -562 -43 -46 -44 0
568 565 -41 0
568 -565 41 0
-568 565 41 0
-568 -565 -41 0
569 44 -42 0
569 -44 42 0
-569 44 42 0
-569 -44 -42 0
-570 565 0
-570 42 0
-570 41 -44 0
-570 -41 44 0
570 -565 41 44 -42 0
570 -565 -41 -44 -42 0
571 568 -39 0
571 -568 39 0
-571 568 39 0
-571 -568 -39 0
572 42 -40 0
572 -42 40 0
-572 42 40 0
-572 -42 -40 0
-573 568 0
-573 40 0
-573 39 -42 0
-573 -39 42 0
573 -568 39 42 -40 0
573 -568 -39 -42 -40 0
574 571 -37 0
574 -571 37 0
-574 571 37 0
-574 -571 -37 0
575 40 -38 0
575 -40 38 0
-575 40 38 0
-575 -40 -38 0
-576 571 0
-576 38 0
-576 37 -40 0
-576 -37 40 0
576 -571 37 40 -38 0
576 -571 -37 -40 -38 0
577 574 -35 0
577 -574 35 0
-577 574 35 0
-577 -574 -35 0
578 38 -36 0
578 -38 36 0
-578 38 36 0
-578 -38 -36 0
-579 574 0
-579 36 0
-579 35 -38 0
-579 -35 38 0
579 -574 35 38 -36 0
579 -574 -35 -38 -36 0
580 577 -33 0
580 -577 33 0
-580 577 33 0
-580 -577 -33 0
581 36 -34 0
581 -36 34 0
-581 36 34 0
-581 -36 -34 0
-582 577 0
-582 34 0
-582 33 -36 0
-582 -33 36 0
582 -577 33 36 -34 0
582 -577 -33 -36 -34 0
583 580 -31 0
583 -580 31 0
-583 580 31 0
-583 -580 -31 0
584 34 -32 0
584 -34 32 0
-584 34 32 0
-584 -34 -32 0
-585 580 0
-585 32 0
-585 31 -34 0
-585 -31 34 0
585 -580 31 34 -32 0
585 -580 -31 -34 -32 0
586 583 -29 0
586 -583 29 0
-586 583 29 0
-586 -583 -29 0
587 32 -30 0
587 -32 30 0
-587 32 30 0
-587 -32 -30 0
-588 583 0
-588 30 0
-588 29 -32 0
-588 -29 32 0
588 -583 29 32 -30 0
588 -583 -29 -32 -30 0
589 586 -27 0
589 -586 27 0
-589 586 27 0
-589 -586 -27 0
590 30 -28 0
590 -30 28 0
-590 30 28 0
-590 -30 -28 0
-591 586 0
-591 28 0
-591 27 -30 0
-591 -27 30 0
591 -586 27 30 -28 0
591 -586 -27 -30 -28 0
592 589 -25 0
592 -589 25 0
-592 589 25 0
-592 -589 -25 0
593 28 -26 0
593 -28 26 0
-593 28 26 0
-593 -28 -26 0
-594 589 0
-594 26 0
-594 25 -28 0
-594 -25 28 0
594 -589 25 28 -26 0
594 -589 -25 -28 -26 0
595 592 -23 0
595 -592 23 0
-595 592 23 0
-595 -592 -23 0
596 26 -24 0
596 -26 24 0
-596 26 24 0
-596 -26 -24 0
-597 592 0
-597 24 0
-597 23 -26 0
-597 -23 26 0
597 -592 23 26 -24 0
597 -592 -23 -26 -24 0
598 595 -21 0
598 -595 21 0
-598 595 21 0
-598 -595 -21 0
599 24 -22 0
599 -24 22 0
-599 24 22 0
-599 -24 -22 0
-600 595 0
-600 22 0
-600 21 -24 0
-600 -21 24 0
600 -595 21 24 -22 0
600 -595 -21 -24 -22 0
601 598 -19 0
601 -598 19 0
-601 598 19 0
-601 -598 -19 0
602 22 -20 0
602 -22 20 0
-602 22 20 0
-602 -22 -20 0
-603 598 0
-603 20 0
-603 19 -22 0
-603 -19 22 0
603 -598 19 22 -20 0
603 -598 -19 -22 -20 0
604 601 -17 0
604 -601 17 0
-604 601 17 0
-604 -601 -17 0
605 20 -18 0
605 -20 18 0
-605 20 18 0
-605 -20 -18 0
-606 601 0
-606 18 0
-606 17 -20 0
-606 -17 20 0
606 -601 17 20 -18 0
606 -601 -17 -20 -18 0
607 604 -15 0
607 -604 15 0
-607 604 15 0
-607 -604 -15 0
608 18 -16 0
608 -18 16 0
-608 18 16 0
-608 -18 -16 0
-609 604 0
-609 16 0
-609 15 -18 0
-609 -15 18 0
609 -604 15 18 -16 0
609 -604 -15 -18 -16 0
610 607 -13 0
610 -607 13 0
-610 607 13 0
-610 -607 -13 0
611 16 -14 0
611 -16 14 0
-611 16 14 0
-611 -16 -14 0
-612 607 0
-612 14 0
-612 13 -16 0
-612 -13 16 0
612 -607 13 16 -14 0
612 -607 -13 -16 -14 0
613 610 -11 0
613 -610 11 0
-613 610 11 0
-613 -610 -11 0
614 14 -12 0
614 -14 12 0
-614 14 12 0
-614 -14 -12 0
-615 610 0
-615 12 0
-615 11 -14 0
-615 -11 14 0
615 -610 11 14 -12 0
615 -610 -11 -14 -12 0
616 613 -9 0
616 -613 9 0
-616 613 9 0
-616 -613 -9 0
617 12 -10 0
617 -12 10 0
-617 12 10 0
-617 -12 -10 0
-618 613 0
-618 10 0
-618 9 -12 0
-618 -9 12 0
618 -613 9 12 -10 0
618 -613 -9 -12 -10 0
619 616 -7 0
619 -616 7 0
-619 616 7 0
-619 -616 -7 0
620 10 -8 0
620 -10 8 0
-620 10 8 0
-620 -10 -8 0
-621 616 0
-621 8 0
-621 7 -10 0
-621 -7 10 0
621 -616 7 10 -8 0
621 -616 -7 -10 -8 0
622 619 -5 0
622 -619 5 0
-622 619 5 0
-622 -619 -5 0
623 8 -6 0
623 -8 6 0
-623 8 6 0
-623 -8 -6 0
-624 619 0
-624 6 0
-624 5 -8 0
-624 -5 8 0
624 -619 5 8 -6 0
624 -619 -5 -8 -6 0
625 622 -3 0
625 -622 3 0
-625 622 3 0
-625 -622 -3 0
626 6 -4 0
626 -6 4 0
-626 6 4 0
-626 -6 -4 0
-627 622 0
-627 4 0
-627 3 -6 0
-627 -3 6 0
627 -622 3 6 -4 0
627 -622 -3 -6 -4 0
628 625 -1 0
628 -625 1 0
-628 625 1 0
-628 -625 -1 0
629 4 -2 0
629 -4 2 0
-629 4 2 0
-629 -4 -2 0
-630 625 0
-630 2 0
-630 1 -4 0
-630 -1 4 0
630 -625 1 4 -2 0
630 -625 -1 -4 -2 0
-628 0
-625 0
-629 0
-622 0
-626 0
-619 0
-623 0
-616 0
-620 0
-613 0
-617 0
-610 0
-614 0
-607 0
-611 0
-604 0
-608 0
-601 0
-605 0
-598 0
-602 0
-595 0
-599 0
-592 0
-596 0
-589 0
-593 0
-586 0
-590 0
-583 0
-587 0
-580 0
-584 0
-577 0
-581 0
-574 0
-578 0
-571 0
-575 0
-568 0
-572 0
-565 0
-569 0
-562 0
-566 0
-559 0
-563 0
-556 0
-560 0
-553 0
-557 0
-550 0
-554 0
-547 0
-551 0
-544 0
-548 0
-541 0
-545 0
-538 0
-542 0
-535 0
-539 0
-532 0
-536 0
-529 0
-533 0
-526 0
-530 0
-523 0
-527 0
-520 0
-524 0
-517 0
-521 0
-514 0
-518 0
-511 0
-515 0
-508 0
-512 0
-505 0
-509 0
-502 0
-506 0
-499 0
-503 0
-496 0
-500 0
-493 0
-497 0
-490 0
-494 0
-487 0
-491 0
-484 0
-488 0
-481 0
-485 0
-478 0
-482 0
-475 0
-479 0
-472 0
-476 0
-469 0
-473 0
-466 0
-470 0
-463 0
-467 0
-460 0
-464 0
-457 0
-461 0
-454 0
-458 0
-451 0
-455 0
-448 0
-452 0
-445 0
-449 0
-442 0
-446 0
-439 0
-443 0
-436 0
-440 0
-433 0
-437 0
-430 0
-434 0
-427 0
-431 0
-424 0
-428 0
-421 0
-425 0
-418 0
-422 0
-415 0
-419 0
-412 0
-416 0
-409 0
-413 0
-406 0
-410 0
-403 0
-407 0
-400 0
-404 0
-397 0
-401 0
-394 0
-398 0
-391 0
-395 0
-388 0
-392 0
-385 0
-389 0
-382 0
-386 0
-379 0
-383 0
-376 0
-380 0
-373 0
-377 0
-370 0
-374 0
-367 0
-371 0
-364 0
-368 0
-361 0
-365 0
-358 0
-362 0
-355 0
-359 0
-352 0
-356 0
-349 0
-353 0
-346 0
-350 0
-343 0
-347 0
-340 0
-344 0
-337 0
-341 0
-334 0
-338 0
-331 0
-335 0
-328 0
-332 0
-325 0
-329 0
-322 0
-326 0
-319 0
-323 0
-316 0
-320 0
-313 0
-317 0
-310 0
-314 0
-307 0
-311 0
-304 0
-308 0
-301 0
-305 0
-298 0
-302 0
-295 0
-299 0
-292 0
-296 0
-289 0
-293 0
-286 0
-290 0
-283 0
-287 0
-280 0
-284 0
-277 0
-281 0
-274 0
-278 0
-271 0
-275 0
-268 0
-272 0
-265 0
-269 0
-262 0
-266 0
-259 0
-263 0
-253 0
-260 0
